(set-logic QF_LRA)
(declare-fun T1 () Real )
(declare-fun T2 () Real )
(declare-fun T3 () Real )
(declare-fun T4 () Real )
(declare-fun T5 () Real )
(declare-fun T6 () Real )
(declare-fun Z () Real )
(assert ( and 
(or ( <= ( + T1 13 ) T2 ) ( <= ( + T2 43 ) T1 ) )
(or ( <= ( + T1 93 )  ( + T2 43 ) ) ( <= ( + T2 93 )( + T1 13 ) ) )
(or ( <= ( + T1 107 )  ( + T2 93 ) ) ( <= ( + T2 138 )( + T1 93 ) ) )
(or ( <= ( + T1 119 )  ( + T2 138 ) ) ( <= ( + T2 139 )( + T1 107 ) ) )
(or ( <= ( + T1 13 ) T3 ) ( <= ( + T3 51 ) T1 ) )
(or ( <= ( + T1 93 )  ( + T3 51 ) ) ( <= ( + T3 93 )( + T1 13 ) ) )
(or ( <= ( + T1 107 )  ( + T3 93 ) ) ( <= ( + T3 187 )( + T1 93 ) ) )
(or ( <= ( + T1 119 )  ( + T3 187 ) ) ( <= ( + T3 240 )( + T1 107 ) ) )
(or ( <= ( + T1 13 ) T4 ) ( <= ( + T4 66 ) T1 ) )
(or ( <= ( + T1 93 )  ( + T4 66 ) ) ( <= ( + T4 73 )( + T1 13 ) ) )
(or ( <= ( + T1 107 )  ( + T4 73 ) ) ( <= ( + T4 147 )( + T1 93 ) ) )
(or ( <= ( + T1 119 )  ( + T4 147 ) ) ( <= ( + T4 153 )( + T1 107 ) ) )
(or ( <= ( + T1 13 ) T5 ) ( <= ( + T5 21 ) T1 ) )
(or ( <= ( + T1 93 )  ( + T5 21 ) ) ( <= ( + T5 119 )( + T1 13 ) ) )
(or ( <= ( + T1 107 )  ( + T5 119 ) ) ( <= ( + T5 185 )( + T1 93 ) ) )
(or ( <= ( + T1 119 )  ( + T5 185 ) ) ( <= ( + T5 240 )( + T1 107 ) ) )
(or ( <= ( + T1 13 ) T6 ) ( <= ( + T6 38 ) T1 ) )
(or ( <= ( + T1 93 )  ( + T6 38 ) ) ( <= ( + T6 77 )( + T1 13 ) ) )
(or ( <= ( + T1 107 )  ( + T6 77 ) ) ( <= ( + T6 135 )( + T1 93 ) ) )
(or ( <= ( + T1 119 )  ( + T6 135 ) ) ( <= ( + T6 223 )( + T1 107 ) ) )
(or ( <= ( + T2 43 ) T3 ) ( <= ( + T3 51 ) T2 ) )
(or ( <= ( + T2 93 )  ( + T3 51 ) ) ( <= ( + T3 93 )( + T2 43 ) ) )
(or ( <= ( + T2 138 )  ( + T3 93 ) ) ( <= ( + T3 187 )( + T2 93 ) ) )
(or ( <= ( + T2 139 )  ( + T3 187 ) ) ( <= ( + T3 240 )( + T2 138 ) ) )
(or ( <= ( + T2 43 ) T4 ) ( <= ( + T4 66 ) T2 ) )
(or ( <= ( + T2 93 )  ( + T4 66 ) ) ( <= ( + T4 73 )( + T2 43 ) ) )
(or ( <= ( + T2 138 )  ( + T4 73 ) ) ( <= ( + T4 147 )( + T2 93 ) ) )
(or ( <= ( + T2 139 )  ( + T4 147 ) ) ( <= ( + T4 153 )( + T2 138 ) ) )
(or ( <= ( + T2 43 ) T5 ) ( <= ( + T5 21 ) T2 ) )
(or ( <= ( + T2 93 )  ( + T5 21 ) ) ( <= ( + T5 119 )( + T2 43 ) ) )
(or ( <= ( + T2 138 )  ( + T5 119 ) ) ( <= ( + T5 185 )( + T2 93 ) ) )
(or ( <= ( + T2 139 )  ( + T5 185 ) ) ( <= ( + T5 240 )( + T2 138 ) ) )
(or ( <= ( + T2 43 ) T6 ) ( <= ( + T6 38 ) T2 ) )
(or ( <= ( + T2 93 )  ( + T6 38 ) ) ( <= ( + T6 77 )( + T2 43 ) ) )
(or ( <= ( + T2 138 )  ( + T6 77 ) ) ( <= ( + T6 135 )( + T2 93 ) ) )
(or ( <= ( + T2 139 )  ( + T6 135 ) ) ( <= ( + T6 223 )( + T2 138 ) ) )
(or ( <= ( + T3 51 ) T4 ) ( <= ( + T4 66 ) T3 ) )
(or ( <= ( + T3 93 )  ( + T4 66 ) ) ( <= ( + T4 73 )( + T3 51 ) ) )
(or ( <= ( + T3 187 )  ( + T4 73 ) ) ( <= ( + T4 147 )( + T3 93 ) ) )
(or ( <= ( + T3 240 )  ( + T4 147 ) ) ( <= ( + T4 153 )( + T3 187 ) ) )
(or ( <= ( + T3 51 ) T5 ) ( <= ( + T5 21 ) T3 ) )
(or ( <= ( + T3 93 )  ( + T5 21 ) ) ( <= ( + T5 119 )( + T3 51 ) ) )
(or ( <= ( + T3 187 )  ( + T5 119 ) ) ( <= ( + T5 185 )( + T3 93 ) ) )
(or ( <= ( + T3 240 )  ( + T5 185 ) ) ( <= ( + T5 240 )( + T3 187 ) ) )
(or ( <= ( + T3 51 ) T6 ) ( <= ( + T6 38 ) T3 ) )
(or ( <= ( + T3 93 )  ( + T6 38 ) ) ( <= ( + T6 77 )( + T3 51 ) ) )
(or ( <= ( + T3 187 )  ( + T6 77 ) ) ( <= ( + T6 135 )( + T3 93 ) ) )
(or ( <= ( + T3 240 )  ( + T6 135 ) ) ( <= ( + T6 223 )( + T3 187 ) ) )
(or ( <= ( + T4 66 ) T5 ) ( <= ( + T5 21 ) T4 ) )
(or ( <= ( + T4 73 )  ( + T5 21 ) ) ( <= ( + T5 119 )( + T4 66 ) ) )
(or ( <= ( + T4 147 )  ( + T5 119 ) ) ( <= ( + T5 185 )( + T4 73 ) ) )
(or ( <= ( + T4 153 )  ( + T5 185 ) ) ( <= ( + T5 240 )( + T4 147 ) ) )
(or ( <= ( + T4 66 ) T6 ) ( <= ( + T6 38 ) T4 ) )
(or ( <= ( + T4 73 )  ( + T6 38 ) ) ( <= ( + T6 77 )( + T4 66 ) ) )
(or ( <= ( + T4 147 )  ( + T6 77 ) ) ( <= ( + T6 135 )( + T4 73 ) ) )
(or ( <= ( + T4 153 )  ( + T6 135 ) ) ( <= ( + T6 223 )( + T4 147 ) ) )
(or ( <= ( + T5 21 ) T6 ) ( <= ( + T6 38 ) T5 ) )
(or ( <= ( + T5 119 )  ( + T6 38 ) ) ( <= ( + T6 77 )( + T5 21 ) ) )
(or ( <= ( + T5 185 )  ( + T6 77 ) ) ( <= ( + T6 135 )( + T5 119 ) ) )
(or ( <= ( + T5 240 )  ( + T6 135 ) ) ( <= ( + T6 223 )( + T5 185 ) ) )
( <= ( + T1 119 ) Z)
( <= ( + T2 139 ) Z)
( <= ( + T3 240 ) Z)
( <= ( + T4 153 ) Z)
( <= ( + T5 240 ) Z)
( <= ( + T6 223 ) Z)
( >= T1 0 )
( >= T2 0 )
( >= T3 0 )
( >= T4 0 )
( >= T5 0 )
( >= T6 0 )
) )
(minimize Z)
(check-sat)